&input
  fildyn = 'al.disp.dyn'
  flfrc = 'al.fc'
/

