 &control
    calculation='scf'
    restart_mode='from_scratch',
    prefix='al_lead',
    pseudo_dir = '/home/k-tsukamoto/win/Documents/QuantumEspresso/q-e-qe-6.7.0/pseudo/',
    outdir='/home/k-tsukamoto/win/Documents/QuantumEspresso/q-e-qe-6.7.0/tempdir/'
 /
 &system
    ibrav=  2, 
    celldm(1) = 7.50,
    nat= 1,
    ntyp= 1,
    ecutwfc = 15.0
    occupations='smearing',
    smearing='marzari-vanderbilt',
    degauss=0.05,
    la2F = .true.,
 /
 &electrons
    conv_thr =  1.0d-10
    mixing_beta = 0.7
 /
ATOMIC_SPECIES
 Al  26.98 Al.pz-vbc.UPF
ATOMIC_POSITIONS
 Al 0.00 0.00 0.00
K_POINTS {automatic}
 18 18 18  0 0 0
