 &input
  zasr='simple',  fildyn='al.dyn', flfrc='al.fc', la2F=.true.
 /
