Phonon dispersions for Al
 &inputph
  tr2_ph=1.0d-10,
  prefix='al',
  amass(1)=26.98,
  outdir='/home/k-tsukamoto/win/Documents/QuantumEspresso/q-e-qe-6.7.0/tempdir/',
  fildyn='al.dyn',
  recover=.true.
  ldisp=.true.
  qplot=.true.,
  q_in_band_form=.true.,
 /
5
0.0 0.0 0.0 4
1.0 0.0 0.0 4
1.0 1.0 0.0 4
0.0 0.0 0.0 4
0.5 0.5 0.5 1
