 &bands
    prefix  = 'si'
    outdir = '/home/k-tsukamoto/win/Documents/QuantumEspresso/q-e-qe-6.7.0/tempdir/'
    filband = 'sibands.dat'
    lsym=.true.,
 /
