 &control
    calculation='bands'
    pseudo_dir = '/home/k-tsukamoto/win/Documents/QuantumEspresso/q-e-qe-6.7.0/pseudo/',
    outdir='/home/k-tsukamoto/win/Documents/QuantumEspresso/q-e-qe-6.7.0/tempdir/'
    prefix='al'
 /
 &system
    ibrav= 2, celldm(1) =7.50, nat=  1, ntyp= 1,
    ecutwfc =15.0, nbnd = 8
 /
 &electrons
    diagonalization='cg'
 /
ATOMIC_SPECIES
 Al  26.98 Al.pz-vbc.UPF
ATOMIC_POSITIONS alat
 Al 0.00 0.00 0.00

K_POINTS {tpiba_b}
12
gG     20
X      20
W      20
K      20
gG     20
L      20
U      20
W      20
L      20
K      0
U      20
X      0












