phonons of Si at Gamma
 &inputph
  tr2_ph=1.0d-14,
  prefix='silicon',
  epsil=.true.,
  amass(1)=28.08,
  outdir='/home/k-tsukamoto/win/Documents/QuantumEspresso/q-e-qe-6.7.0/tempdir/',
  fildyn='si.dynG',
 /
0.0 0.0 0.0
