&dos
   outdir = '/home/k-tsukamoto/win/Documents/QuantumEspresso/q-e-qe-6.7.0/tempdir/',
   prefix='al',
   bz_sum = 'tetrahedra_opt'
/

