 &control
    calculation='nscf'
    restart_mode='from_scratch',
    pseudo_dir = '/home/k-tsukamoto/win/Documents/QuantumEspresso/q-e-qe-6.7.0/pseudo/',
    outdir='/home/k-tsukamoto/win/Documents/QuantumEspresso/q-e-qe-6.7.0/tempdir/',
    prefix='al'
    tprnfor = .true.
    tstress = .true.
 /
 &system
    ibrav=  2, celldm(1) =7.50, nat=  1, ntyp= 1, ecutwfc =15.0,
    occupations='tetrahedra_opt', smearing='marzari-vanderbilt', degauss=0.05
 /
 &electrons
    diagonalization='cg'
    mixing_beta = 0.7
 /
ATOMIC_SPECIES
 Al  26.98 Al.pz-vbc.UPF
ATOMIC_POSITIONS alat
 Al 0.00 0.00 0.00
K_POINTS automatic
 20 20 20 0 0 0 

